
Gurobi 11.0.1 (win64) logging started Thu May 16 18:37:57 2024

Set parameter LogFile to value "output/solver_log6.txt"
Gurobi Optimizer version 11.0.1 build v11.0.1rc0 (win64 - Windows 11.0 (22631.2))

CPU model: 11th Gen Intel(R) Core(TM) i7-1165G7 @ 2.80GHz, instruction set [SSE2|AVX|AVX2|AVX512]
Thread count: 4 physical cores, 8 logical processors, using up to 8 threads

Optimize a model with 6150 rows, 1580 columns and 118297 nonzeros
Model fingerprint: 0x05ecbdad
Variable types: 568 continuous, 1012 integer (1012 binary)
Coefficient statistics:
  Matrix range     [4e-01, 1e+05]
  Objective range  [1e+00, 1e+02]
  Bounds range     [1e+00, 1e+00]
  RHS range        [1e-02, 1e+05]

User MIP start produced solution with objective 40108.2 (0.01s)
User MIP start produced solution with objective 40108.2 (0.01s)
Loaded user MIP start with objective 40108.2

Presolve removed 1328 rows and 670 columns
Presolve time: 0.12s
Presolved: 4822 rows, 910 columns, 92839 nonzeros
Variable types: 528 continuous, 382 integer (378 binary)

Root relaxation: objective 5.221865e+04, 1799 iterations, 0.13 seconds (0.25 work units)

    Nodes    |    Current Node    |     Objective Bounds      |     Work
 Expl Unexpl |  Obj  Depth IntInf | Incumbent    BestBd   Gap | It/Node Time

     0     0 52218.6544    0   91 40108.1943 52218.6544  30.2%     -    0s
     0     0 51231.2628    0  102 40108.1943 51231.2628  27.7%     -    0s
     0     0 51195.1043    0   97 40108.1943 51195.1043  27.6%     -    0s
     0     0 51195.1043    0   96 40108.1943 51195.1043  27.6%     -    0s
     0     0 51117.2044    0   95 40108.1943 51117.2044  27.4%     -    0s
     0     0 50722.1794    0   88 40108.1943 50722.1794  26.5%     -    1s
     0     0 50722.1794    0   90 40108.1943 50722.1794  26.5%     -    1s
     0     0 50722.1794    0   90 40108.1943 50722.1794  26.5%     -    1s
     0     0 50719.5487    0  109 40108.1943 50719.5487  26.5%     -    1s
     0     0 50653.2977    0  104 40108.1943 50653.2977  26.3%     -    1s
     0     0 50645.9202    0  100 40108.1943 50645.9202  26.3%     -    2s
     0     0 50644.2949    0  110 40108.1943 50644.2949  26.3%     -    2s
     0     0 50643.1831    0  105 40108.1943 50643.1831  26.3%     -    2s
     0     0 50643.1649    0  103 40108.1943 50643.1649  26.3%     -    2s
     0     0 50507.6876    0  108 40108.1943 50507.6876  25.9%     -    2s
     0     0 50493.9356    0  114 40108.1943 50493.9356  25.9%     -    2s
     0     0 50489.5219    0  106 40108.1943 50489.5219  25.9%     -    3s
     0     0 50475.5661    0  118 40108.1943 50475.5661  25.8%     -    3s
     0     0 50475.5661    0  128 40108.1943 50475.5661  25.8%     -    3s
     0     0 50475.5661    0  125 40108.1943 50475.5661  25.8%     -    3s
     0     0 50467.0922    0  129 40108.1943 50467.0922  25.8%     -    3s
     0     0 49858.6923    0  122 40108.1943 49858.6923  24.3%     -    3s
     0     0 49858.6923    0  127 40108.1943 49858.6923  24.3%     -    3s
     0     0 49542.2688    0  114 40108.1943 49542.2688  23.5%     -    4s
     0     0 49536.0814    0  124 40108.1943 49536.0814  23.5%     -    4s
     0     0 49536.0814    0  129 40108.1943 49536.0814  23.5%     -    4s
     0     0 49536.0814    0  127 40108.1943 49536.0814  23.5%     -    4s
     0     0 49502.6452    0  127 40108.1943 49502.6452  23.4%     -    4s
     0     0 49468.8188    0  117 40108.1943 49468.8188  23.3%     -    5s
     0     0 49468.8188    0  117 40108.1943 49468.8188  23.3%     -    5s
     0     2 49468.8188    0  117 40108.1943 49468.8188  23.3%     -    5s
    67    73 43628.0613   12   75 40108.1943 49468.8188  23.3%   897   10s
H  208   137                    40110.414973 49468.8188  23.3%   809   14s
H  210   137                    40110.950332 49468.8188  23.3%   806   14s
   229   152 42683.0165    9  104 40110.9503 49468.8188  23.3%   808   15s
H  246   156                    40113.077059 49468.8188  23.3%   817   15s
H  296   179                    40113.163680 48399.9468  20.7%   793   17s
   381   201 43286.8898    9   65 40113.1637 48074.6752  19.8%   814   20s
H  514   223                    40113.250300 47870.4858  19.3%   804   23s
   547   249 41658.8820    8   79 40113.2503 47318.9691  18.0%   808   25s
   759   287 45268.9984    6  110 40113.2503 46285.1762  15.4%   777   30s
   826   291 40270.4249   11  112 40113.2503 46121.6583  15.0%   769   37s
   947   316     cutoff   11      40113.2503 45783.9352  14.1%   758   40s
  1279   340 41893.1189   11   73 40113.2503 44517.7911  11.0%   723   46s
  1531   331 40196.4978   15   73 40113.2503 43775.2702  9.13%   687   56s
  1752   430 40134.2491   97   13 40113.2503 43645.3853  8.81%   660   60s

Cutting planes:
  Gomory: 6
  Implied bound: 23
  MIR: 200
  RLT: 8
  Relax-and-lift: 4
  BQP: 1

Explored 1880 nodes (1204685 simplex iterations) in 60.02 seconds (133.66 work units)
Thread count was 8 (of 8 available processors)

Solution count 6: 40113.3 40113.2 40113.1 ... 40108.2

Time limit reached
Best objective 4.011325029957e+04, best bound 4.364538527465e+04, gap 8.8054%
